p cnf 18 43
-1 -13 -14 0
3 -10 14 0
-4 12 14 0
1 5 -6 0
-6 8 11 0
-6 -11 -18 0
7 9 -12 0
3 -11 -16 0
-3 -4 5 0
12 -15 -16 0
-8 11 -14 0
1 -4 14 0
-8 9 16 0
2 -16 -17 0
1 -6 -11 0
5 13 -16 0
4 7 17 0
4 -12 -13 0
10 16 -18 0
3 -4 18 0
1 -2 18 0
-11 13 18 0
12 14 16 0
-4 -10 15 0
3 8 -16 0
-5 -9 -13 0
5 -7 14 0
-4 12 15 0
2 5 14 0
1 -11 -13 0
1 10 -12 0
3 7 -18 0
1 2 -11 0
-4 11 14 0
-4 -15 16 0
2 -6 -11 0
-8 11 -15 0
13 -16 17 0
-1 5 7 0
-6 14 17 0
3 -11 -15 0
1 -4 18 0
2 -6 -12 0
